17	4	3
42	48	37	37	12	32	13	
0	0	0	0	0	5	10	6	2	1	5	3	2	3	4
7	9	8	5	9	4	9	5	8	3	2	2	11	17
4	6	5	6	7	8	4	9	10	5	5	1	10
5	2	9	4	5	5	10	7	4	6	4	3	5	7	8
1	8	6	8	6	4	3	7	10	9	10	3	6	13	17
25	2	7	5	9	5	4	9	10	5	9	1	17
50	8	3	8	8	5	9	7	9	6	10	2	15	17
175	3	7	2	2	1	4	4	9	3	8	2	9	17
100	3	10	2	3	4	8	7	1	2	3	2	15	17
100	10	5	5	3	4	5	6	10	5	4	2	12	14
225	9	3	5	7	9	9	8	8	9	2	1	12
250	4	6	10	2	6	3	1	3	2	6	2	16	17
7	8	9	4	2	3	2	10	6	1	3	1	17
2	9	8	9	3	3	4	1	10	5	2	1	17
4	4	5	3	3	2	8	6	7	7	10	1	17
2	8	5	9	1	1	6	9	8	3	7	1	17
0	0	0	0	0	10	9	10	10	2	2	0
